
Gurobi 9.5.1 (linux64) logging started Tue 16 Aug 2022 03:59:46 PM MST

Set parameter LogFile to value "/home/local/ASUAD/kmajd1/NNRepLayer_v2/demos/walking_example/global_constraint_upper_10/repair_net/logs/opt_log_multi_20.log"
Gurobi Optimizer version 9.5.1 build v9.5.1rc2 (linux64)
Thread count: 48 physical cores, 96 logical processors, using up to 45 threads
Optimize a model with 16863 rows, 10742 columns and 136063 nonzeros
Model fingerprint: 0x10c64154
Model has 149 quadratic objective terms
Variable types: 5974 continuous, 4768 integer (4768 binary)
Coefficient statistics:
  Matrix range     [8e-05, 2e+02]
  Objective range  [9e-05, 1e+00]
  QObjective range [1e-02, 1e-02]
  Bounds range     [1e+00, 1e+03]
  RHS range        [8e-06, 2e+02]

Concurrent MIP optimizer: 3 concurrent instances (15 threads per instance)

Presolve removed 490 rows and 96 columns
Presolve time: 0.25s
Presolved: 16373 rows, 10646 columns, 135381 nonzeros
Presolved model has 149 quadratic objective terms
Variable types: 5878 continuous, 4768 integer (4768 binary)
Root relaxation presolve removed 4768 rows and 4768 columns
Root relaxation presolved: 11605 rows, 5878 columns, 121077 nonzeros
Root relaxation presolved model has 149 quadratic objective terms


Root relaxation: objective 3.404303e+01, 7333 iterations, 0.27 seconds (0.41 work units)

    Nodes    |    Current Node    |     Objective Bounds      |     Work
 Expl Unexpl |  Obj  Depth IntInf | Incumbent    BestBd   Gap | It/Node Time

     0     0      -    -    -      194.78474   34.04303  82.5%     -    0s
     0     0      -    -    -      192.11267   34.04303  82.3%     -    2s
     0     2      -    -    -      192.11267   34.04303  82.3%     -    4s
     7    16      -    -    -      192.11267   34.04303  82.3%     -    5s
    30    46      -    -    -      190.97163   34.04303  82.2%     -   10s
    45    61      -    -    -      190.95091   34.04303  82.2%     -   20s
   102   118      -    -    -       42.35289   34.04303  19.6%     -   28s
  1052  1126      -    -    -       42.35289   34.04303  19.6%     -   30s
  1384  1473      -    -    -       42.28657   34.04303  19.5%     -   35s
  4860  5086      -    -    -       42.28657   34.04303  19.5%     -   40s
  8718  9072      -    -    -       42.28657   34.04303  19.5%     -   46s
  9744 10091      -    -    -       42.14772   34.04303  19.2%     -   52s
 10091 10092      -    -    -       41.55168   34.04303  18.1%     -   66s
 10093  9588      -    -    -       41.50988   34.04303  18.0%     -   72s
 10095  9110      -    -    -       41.50261   34.04303  18.0%     -   89s
 10098  9117      -    -    -       41.50261   34.04303  18.0%     -   90s
 10196  7132      -    -    -       40.09617   34.04303  15.1%     -  113s
 10211  6790      -    -    -       40.09524   34.04303  15.1%     -  141s
 11020  6704      -    -    -       40.06318   34.04303  15.0%     -  145s
 11289  6592      -    -    -       40.05304   34.04303  15.0%     -  169s
 11343  6387      -    -    -       40.05007   34.04303  15.0%     -  170s
 12589  7329      -    -    -       40.05007   34.04303  15.0%     -  175s
 14697  8778      -    -    -       40.05007   34.04303  15.0%     -  203s
 15643  9503      -    -    -       40.05007   34.04303  15.0%     -  205s
 18305 11293      -    -    -       40.05007   34.04303  15.0%     -  215s

Resetting heuristic parameters to focus on improving solution
(using Heuristics=0.5 and RINS=10)...

 18670 10460      -    -    -       38.52720   34.04303  11.6%     -  226s
 18737 10179      -    -    -       38.47643   34.04303  11.5%     -  255s
 20273 10233      -    -    -       38.32408   34.04303  11.2%     -  272s
 20327 10742      -    -    -       38.27219   34.04303  11.1%     -  391s

Instance 0 was solved

Explored 20836 nodes (2252226 simplex iterations) in 392.01 seconds (675.13 work units)
Thread count was 15 (of 96 available processors)

Solution count 10: 37.9526 38.2246 38.2503 ... 38.3241 

Optimal solution found (tolerance 1.10e-01)
Best objective 3.795258848812e+01, best bound 3.404302588991e+01, gap 10.3012%
